File : Instances/p60
Use 137 s

22021

0 0 1 0 1 0 0 1 1 0 1 1 0 1 0 0 0 0 0 1 1 1 0 0 1 0 0 1 1 0 
7 19 21 27 2 11 21 27 27 28 4 28 13 13 28 7 13 20 27 27 27 21 2 24 10 27 27 19 4 2 19 19 4 21 27 19 20 8 24 21 7 8 19 4 8 19 13 21 19 20 24 24 24 21 8 19 7 8 27 7 4 2 7 8 13 11 2 19 28 11 7 11 19 8 10 13 20 10 8 24 10 2 8 7 4 13 19 2 27 7 28 19 7 11 2 13 11 28 2 28 28 21 11 7 4 24 4 24 27 13 19 4 27 11 11 8 28 7 28 8 20 11 28 19 4 21 2 11 19 28 28 24 11 20 13 8 13 13 28 10 11 27 11 11 7 2 24 21 27 7 24 28 10 28 8 11 2 21 13 13 13 27 10 24 10 27 2 4 13 21 13 20 19 10 4 2 24 10 4 10 2 21 2 19 11 8 28 10 27 21 2 21 19 4 7 11 7 21 10 19 
